decision_x1=[0,7];
decision_x2=[0,7];
decision_x3=[0,7];
decision_x4=[0,7];
decision_x5=[0,7];
decision_x6=[0,7];
decision_x7=[0,7];
decision_x8=[0,7];
decision_x9=[0,7];
decision_x10=[0,7];
decision_x11=[0,7];
decision_x12=[0,7];
decision_x13=[0,7];
decision_x14=[0,7];
decision_x15=[0,7];
decision_x16=[0,7];
decision_x17=[0,7];
decision_x18=[0,7];
decision_x19=[0,7];
decision_x20=[0,7];
random_y1=[0,7];
random_y2=[0,7];
random_y3=[0,7];
random_y4=[0,7];
random_y5=[0,7];
random_y6=[0,7];
random_y7=[0,7];
random_y8=[0,7];
random_y9=[0,7];
constraint_x2_x1=[
0,0,6.2|
0,1,10|
0,2,7.8|
0,3,1.3|
0,4,7.7|
0,5,3.2|
0,6,2.9|
0,7,1.4|
1,0,3|
1,1,5.3|
1,2,9.2|
1,3,2.6|
1,4,8.8|
1,5,4.2|
1,6,3.1|
1,7,8.6|
2,0,6.7|
2,1,3.9|
2,2,6|
2,3,3.2|
2,4,1.2|
2,5,6.5|
2,6,0.55|
2,7,2.2|
3,0,4.5|
3,1,3.4|
3,2,7.5|
3,3,6.2|
3,4,2.4|
3,5,0.27|
3,6,7.6|
3,7,7.2|
4,0,7.8|
4,1,0.63|
4,2,1.1|
4,3,5.2|
4,4,7.2|
4,5,0.4|
4,6,9.3|
4,7,8.8|
5,0,1.4|
5,1,2.6|
5,2,0.68|
5,3,5|
5,4,8.6|
5,5,5.4|
5,6,1.8|
5,7,1.6|
6,0,8.4|
6,1,2.4|
6,2,9.1|
6,3,2.1|
6,4,0.46|
6,5,4.9|
6,6,7.3|
6,7,7.4|
7,0,2.1|
7,1,6.8|
7,2,6.8|
7,3,0.51|
7,4,8.2|
7,5,2.9|
7,6,4.7|
7,7,8.5|
];
constraint_x3_x2=[
0,0,4.7|
0,1,6.8|
0,2,5.5|
0,3,6.7|
0,4,10|
0,5,2|
0,6,9.2|
0,7,8.9|
1,0,6.8|
1,1,7.8|
1,2,0.47|
1,3,8.3|
1,4,4.4|
1,5,5.7|
1,6,2|
1,7,6.7|
2,0,7.8|
2,1,5.6|
2,2,5.3|
2,3,3.4|
2,4,7.4|
2,5,2.1|
2,6,1.4|
2,7,6.2|
3,0,3|
3,1,0.95|
3,2,1.8|
3,3,7.5|
3,4,9.8|
3,5,0.64|
3,6,2.6|
3,7,9.6|
4,0,8.9|
4,1,9.8|
4,2,2|
4,3,2.1|
4,4,2.7|
4,5,8.3|
4,6,0.16|
4,7,9.2|
5,0,3.9|
5,1,1.8|
5,2,5.2|
5,3,5.6|
5,4,8|
5,5,9.4|
5,6,8.6|
5,7,6.1|
6,0,4|
6,1,9.3|
6,2,0.88|
6,3,0.11|
6,4,8|
6,5,2.1|
6,6,2.5|
6,7,6.1|
7,0,5.7|
7,1,7.3|
7,2,9.9|
7,3,1.2|
7,4,3.7|
7,5,3.6|
7,6,8.4|
7,7,6.8|
];
constraint_x4_x3=[
0,0,1.2|
0,1,0.088|
0,2,2.4|
0,3,7.8|
0,4,6.4|
0,5,6.1|
0,6,3.2|
0,7,0.088|
1,0,8.1|
1,1,9.1|
1,2,5.3|
1,3,7.5|
1,4,1|
1,5,0.26|
1,6,4.5|
1,7,7.4|
2,0,8.1|
2,1,1.9|
2,2,7.9|
2,3,2|
2,4,1.6|
2,5,6.2|
2,6,0.69|
2,7,8.3|
3,0,6.5|
3,1,7.7|
3,2,9.4|
3,3,7.2|
3,4,5.5|
3,5,5.4|
3,6,0.49|
3,7,9.9|
4,0,1.4|
4,1,1.6|
4,2,3.2|
4,3,1.6|
4,4,3.2|
4,5,5.8|
4,6,8.1|
4,7,8.3|
5,0,8.7|
5,1,5.8|
5,2,2.5|
5,3,1.7|
5,4,9.6|
5,5,3.8|
5,6,3.1|
5,7,9.3|
6,0,7.5|
6,1,2.4|
6,2,3.5|
6,3,4.9|
6,4,2.7|
6,5,7.7|
6,6,8|
6,7,6.2|
7,0,5.2|
7,1,6.1|
7,2,8.8|
7,3,4.1|
7,4,4.3|
7,5,5.3|
7,6,5.2|
7,7,7.5|
];
constraint_x5_x1=[
0,0,6.6|
0,1,3.4|
0,2,9.1|
0,3,4.2|
0,4,6|
0,5,9.8|
0,6,7.3|
0,7,5.2|
1,0,7.5|
1,1,4|
1,2,9|
1,3,9.7|
1,4,9.5|
1,5,5.7|
1,6,2.1|
1,7,7.2|
2,0,6.2|
2,1,4.5|
2,2,7.7|
2,3,9.9|
2,4,1.7|
2,5,8.4|
2,6,6.7|
2,7,0.97|
3,0,9.9|
3,1,6|
3,2,7.1|
3,3,3.8|
3,4,2.5|
3,5,3.6|
3,6,0.47|
3,7,4.7|
4,0,9.6|
4,1,7.1|
4,2,6|
4,3,1.4|
4,4,5.1|
4,5,0.79|
4,6,1.6|
4,7,1.2|
5,0,9.8|
5,1,3.7|
5,2,3.4|
5,3,8.6|
5,4,5.5|
5,5,3.5|
5,6,9.8|
5,7,9|
6,0,4.6|
6,1,2.8|
6,2,8.7|
6,3,6.8|
6,4,2|
6,5,3.9|
6,6,4.6|
6,7,6.9|
7,0,6.6|
7,1,3|
7,2,2.9|
7,3,6.4|
7,4,0.34|
7,5,2.3|
7,6,7.9|
7,7,5.8|
];
constraint_x6_x2=[
0,0,6.7|
0,1,2.2|
0,2,2.9|
0,3,9.1|
0,4,7.1|
0,5,5.5|
0,6,1.4|
0,7,0.52|
1,0,0.35|
1,1,1.5|
1,2,3.2|
1,3,2.5|
1,4,1.6|
1,5,4.7|
1,6,9.6|
1,7,0.71|
2,0,6.9|
2,1,1.7|
2,2,2.2|
2,3,4.3|
2,4,5.8|
2,5,5.4|
2,6,2.2|
2,7,7.7|
3,0,3.8|
3,1,1.9|
3,2,5|
3,3,8.3|
3,4,2.7|
3,5,0.7|
3,6,4.3|
3,7,8.4|
4,0,7|
4,1,5|
4,2,6.3|
4,3,1.2|
4,4,5.1|
4,5,7.2|
4,6,4|
4,7,2.7|
5,0,4.6|
5,1,0.36|
5,2,5.4|
5,3,5.3|
5,4,6.5|
5,5,3.7|
5,6,4.8|
5,7,2.5|
6,0,8.8|
6,1,3.8|
6,2,0.95|
6,3,9.7|
6,4,5.4|
6,5,5.4|
6,6,2.4|
6,7,5.2|
7,0,6|
7,1,1.2|
7,2,1.2|
7,3,6.5|
7,4,5.1|
7,5,9.2|
7,6,6.4|
7,7,3.3|
];
constraint_x7_x3=[
0,0,6.5|
0,1,1.5|
0,2,3.3|
0,3,5.1|
0,4,9.5|
0,5,9.2|
0,6,8.5|
0,7,2.5|
1,0,9.6|
1,1,2.7|
1,2,6.4|
1,3,0.72|
1,4,5.1|
1,5,3.8|
1,6,9.5|
1,7,9.5|
2,0,9.9|
2,1,5.9|
2,2,9.5|
2,3,6.2|
2,4,9.6|
2,5,3.4|
2,6,0.46|
2,7,2.2|
3,0,8.9|
3,1,9|
3,2,2.8|
3,3,9.8|
3,4,2.1|
3,5,3.1|
3,6,6.7|
3,7,7.8|
4,0,2.5|
4,1,7.6|
4,2,6.4|
4,3,6|
4,4,1.6|
4,5,2.5|
4,6,6.2|
4,7,7.3|
5,0,5.2|
5,1,9.9|
5,2,9.4|
5,3,1|
5,4,8.5|
5,5,3.1|
5,6,6.8|
5,7,7.7|
6,0,6.9|
6,1,6|
6,2,7|
6,3,6.7|
6,4,2.9|
6,5,1.7|
6,6,3.2|
6,7,9.6|
7,0,3.1|
7,1,2.7|
7,2,3.8|
7,3,5.2|
7,4,1.8|
7,5,9.7|
7,6,4|
7,7,7.9|
];
constraint_x8_x4=[
0,0,5.7|
0,1,4.5|
0,2,7.6|
0,3,2.4|
0,4,6.7|
0,5,4.8|
0,6,7.2|
0,7,8.3|
1,0,1.7|
1,1,8.1|
1,2,1.6|
1,3,2.8|
1,4,4.2|
1,5,6.3|
1,6,2.4|
1,7,4.4|
2,0,4.4|
2,1,1.1|
2,2,3.1|
2,3,3.3|
2,4,2.7|
2,5,5.6|
2,6,6.4|
2,7,9.5|
3,0,1.5|
3,1,3.8|
3,2,1.9|
3,3,0.23|
3,4,4.2|
3,5,3.4|
3,6,3.1|
3,7,8.5|
4,0,7.8|
4,1,9.4|
4,2,2.6|
4,3,1.8|
4,4,3.5|
4,5,5.8|
4,6,0.46|
4,7,8|
5,0,0.77|
5,1,7.4|
5,2,6.1|
5,3,2.6|
5,4,7.2|
5,5,6.8|
5,6,6.5|
5,7,6.8|
6,0,0.36|
6,1,10|
6,2,9.2|
6,3,7.4|
6,4,7|
6,5,1.1|
6,6,5.2|
6,7,1.8|
7,0,4.5|
7,1,6.7|
7,2,9.6|
7,3,7.4|
7,4,9.7|
7,5,1.2|
7,6,2.6|
7,7,7.1|
];
constraint_x9_x5=[
0,0,4.4|
0,1,0.37|
0,2,6.8|
0,3,1.6|
0,4,5|
0,5,1.6|
0,6,9.3|
0,7,9.2|
1,0,4.9|
1,1,8.9|
1,2,9.3|
1,3,2.5|
1,4,4.9|
1,5,6|
1,6,0.52|
1,7,9.5|
2,0,1.5|
2,1,8.5|
2,2,0.21|
2,3,9.6|
2,4,8.3|
2,5,3.5|
2,6,1|
2,7,2.8|
3,0,7.9|
3,1,0.89|
3,2,6.8|
3,3,4.2|
3,4,2.2|
3,5,6.2|
3,6,7.1|
3,7,2.5|
4,0,6.3|
4,1,2.8|
4,2,1.8|
4,3,5.8|
4,4,0.63|
4,5,9|
4,6,5.5|
4,7,8.4|
5,0,7.8|
5,1,2.7|
5,2,5.6|
5,3,1.9|
5,4,0.37|
5,5,0.081|
5,6,9.4|
5,7,5.9|
6,0,6|
6,1,6.6|
6,2,1.2|
6,3,8.3|
6,4,7.2|
6,5,5.8|
6,6,6.8|
6,7,2.8|
7,0,8.7|
7,1,10|
7,2,2.3|
7,3,6.7|
7,4,9.2|
7,5,5.9|
7,6,8.3|
7,7,6.9|
];
constraint_x10_x6=[
0,0,2.2|
0,1,7.6|
0,2,3.4|
0,3,6|
0,4,8|
0,5,6.8|
0,6,2.9|
0,7,8.3|
1,0,0.79|
1,1,7.9|
1,2,1.6|
1,3,5.6|
1,4,8.5|
1,5,1.7|
1,6,2.9|
1,7,2.4|
2,0,5.3|
2,1,8.4|
2,2,2.5|
2,3,9.9|
2,4,7.9|
2,5,4.7|
2,6,7.9|
2,7,4.4|
3,0,3.2|
3,1,3.7|
3,2,4.4|
3,3,5.4|
3,4,7.7|
3,5,9.9|
3,6,9.8|
3,7,6.3|
4,0,1.9|
4,1,6.6|
4,2,4.1|
4,3,8.9|
4,4,3|
4,5,1.1|
4,6,1.5|
4,7,2.7|
5,0,9.4|
5,1,0.61|
5,2,10|
5,3,0.96|
5,4,7|
5,5,0.17|
5,6,3.1|
5,7,8.6|
6,0,6.4|
6,1,7.5|
6,2,1|
6,3,9.6|
6,4,8.9|
6,5,7.9|
6,6,5.4|
6,7,0.86|
7,0,4.4|
7,1,9.5|
7,2,4.8|
7,3,8.1|
7,4,1.3|
7,5,4.3|
7,6,6.9|
7,7,1.9|
];
constraint_x11_x7=[
0,0,0.59|
0,1,5.4|
0,2,6.9|
0,3,0.91|
0,4,2.7|
0,5,4.6|
0,6,0.16|
0,7,2.6|
1,0,2.3|
1,1,4.5|
1,2,7.3|
1,3,8.5|
1,4,0.054|
1,5,2.9|
1,6,3.2|
1,7,5.6|
2,0,1.3|
2,1,5.3|
2,2,4.2|
2,3,7.8|
2,4,1.2|
2,5,0.45|
2,6,6.3|
2,7,1.4|
3,0,0.062|
3,1,4.2|
3,2,2.5|
3,3,6.7|
3,4,1.2|
3,5,6.9|
3,6,2.4|
3,7,0.29|
4,0,1.2|
4,1,9.7|
4,2,9.7|
4,3,5.8|
4,4,5.1|
4,5,3.5|
4,6,7.2|
4,7,0.83|
5,0,6|
5,1,9.3|
5,2,2.5|
5,3,9.9|
5,4,7.5|
5,5,0.75|
5,6,9.6|
5,7,9.5|
6,0,0.38|
6,1,0.68|
6,2,4.2|
6,3,1.3|
6,4,5|
6,5,7.7|
6,6,4.5|
6,7,7.1|
7,0,8.8|
7,1,7.6|
7,2,7|
7,3,3|
7,4,4.6|
7,5,1.5|
7,6,6.1|
7,7,7.4|
];
constraint_x12_x8=[
0,0,1.3|
0,1,7.5|
0,2,8.1|
0,3,1.1|
0,4,7.3|
0,5,3.2|
0,6,1.5|
0,7,2.8|
1,0,7|
1,1,8.8|
1,2,0.54|
1,3,0.45|
1,4,1.5|
1,5,9|
1,6,6.4|
1,7,0.64|
2,0,4.8|
2,1,8.2|
2,2,0.095|
2,3,1.2|
2,4,2.1|
2,5,8.4|
2,6,7.7|
2,7,3.2|
3,0,0.24|
3,1,9|
3,2,0.68|
3,3,8.5|
3,4,4.7|
3,5,0.66|
3,6,2|
3,7,2|
4,0,4.3|
4,1,0.65|
4,2,5.9|
4,3,4.3|
4,4,0.91|
4,5,1.5|
4,6,6.9|
4,7,3.2|
5,0,1.4|
5,1,4.5|
5,2,2.8|
5,3,9.8|
5,4,9.3|
5,5,7.2|
5,6,3.1|
5,7,5|
6,0,4.5|
6,1,2.8|
6,2,2.7|
6,3,9.8|
6,4,4.9|
6,5,6.9|
6,6,9.3|
6,7,1.1|
7,0,5.2|
7,1,9.2|
7,2,6.5|
7,3,9.8|
7,4,9.3|
7,5,3.5|
7,6,3.9|
7,7,5.8|
];
constraint_x13_x9=[
0,0,5.4|
0,1,6.7|
0,2,6.5|
0,3,2.4|
0,4,6|
0,5,5.2|
0,6,2.9|
0,7,4.8|
1,0,6.3|
1,1,3.5|
1,2,3.9|
1,3,9.5|
1,4,0.89|
1,5,6.8|
1,6,5.5|
1,7,1.4|
2,0,4.9|
2,1,4|
2,2,3|
2,3,5.8|
2,4,9.4|
2,5,0.43|
2,6,0.089|
2,7,7.6|
3,0,1.4|
3,1,8|
3,2,8.9|
3,3,4.1|
3,4,0.076|
3,5,6.5|
3,6,7.1|
3,7,4.7|
4,0,4.5|
4,1,2.4|
4,2,8.7|
4,3,3.7|
4,4,8.4|
4,5,8.1|
4,6,2.8|
4,7,9.3|
5,0,9.7|
5,1,7.5|
5,2,4.1|
5,3,2.3|
5,4,6.2|
5,5,7.1|
5,6,2.6|
5,7,2.1|
6,0,5|
6,1,1.8|
6,2,4.8|
6,3,7.5|
6,4,8.4|
6,5,5.4|
6,6,4.6|
6,7,0.49|
7,0,4|
7,1,8.8|
7,2,8.7|
7,3,6|
7,4,9.9|
7,5,7|
7,6,0.16|
7,7,9.2|
];
constraint_x14_x10=[
0,0,6.5|
0,1,6.5|
0,2,4.7|
0,3,2.3|
0,4,0.85|
0,5,1.6|
0,6,5.4|
0,7,7.1|
1,0,4.9|
1,1,9.9|
1,2,8.2|
1,3,9.1|
1,4,7|
1,5,1.5|
1,6,2.6|
1,7,5.6|
2,0,4.5|
2,1,8.6|
2,2,3|
2,3,0.17|
2,4,6.4|
2,5,2.8|
2,6,7.8|
2,7,8|
3,0,1.1|
3,1,6.2|
3,2,5.9|
3,3,2.8|
3,4,5.8|
3,5,7.5|
3,6,1.6|
3,7,4.5|
4,0,0.28|
4,1,4.3|
4,2,3.3|
4,3,6.4|
4,4,4.3|
4,5,2.3|
4,6,2.2|
4,7,6.8|
5,0,6.2|
5,1,0.28|
5,2,8.5|
5,3,9.8|
5,4,3.2|
5,5,2.6|
5,6,5.4|
5,7,2.5|
6,0,1.3|
6,1,4.5|
6,2,3.8|
6,3,1.5|
6,4,5.1|
6,5,5|
6,6,3.9|
6,7,6.8|
7,0,6.7|
7,1,5.3|
7,2,5.1|
7,3,1.9|
7,4,9.8|
7,5,9.3|
7,6,8.8|
7,7,3.5|
];
constraint_x15_x11=[
0,0,8.8|
0,1,10|
0,2,1.3|
0,3,7.6|
0,4,1|
0,5,0.81|
0,6,4.5|
0,7,6.3|
1,0,1.1|
1,1,8.5|
1,2,8.7|
1,3,4.1|
1,4,2.3|
1,5,6.2|
1,6,4.2|
1,7,4.7|
2,0,7.5|
2,1,9.1|
2,2,4|
2,3,5.7|
2,4,1.6|
2,5,9.8|
2,6,1.6|
2,7,5.1|
3,0,2.8|
3,1,0.23|
3,2,3|
3,3,0.79|
3,4,4.6|
3,5,6.1|
3,6,2|
3,7,3.1|
4,0,1.7|
4,1,9.1|
4,2,8.1|
4,3,7.5|
4,4,8|
4,5,2.4|
4,6,1.4|
4,7,8.4|
5,0,0.33|
5,1,7.1|
5,2,8.2|
5,3,4.2|
5,4,2.8|
5,5,7|
5,6,7.4|
5,7,7.6|
6,0,3.3|
6,1,8.8|
6,2,4.3|
6,3,2.6|
6,4,3.7|
6,5,9.7|
6,6,0.52|
6,7,1.5|
7,0,9.1|
7,1,1.6|
7,2,3.4|
7,3,9.7|
7,4,7.9|
7,5,5|
7,6,6.6|
7,7,4.9|
];
constraint_x16_x12=[
0,0,9.9|
0,1,1.1|
0,2,0.2|
0,3,5.4|
0,4,1.6|
0,5,2|
0,6,5.3|
0,7,2.4|
1,0,3.6|
1,1,5.9|
1,2,3.4|
1,3,5.8|
1,4,6.8|
1,5,5.4|
1,6,7.7|
1,7,5|
2,0,1.7|
2,1,0.21|
2,2,1.8|
2,3,3.7|
2,4,5.4|
2,5,0.39|
2,6,7.1|
2,7,1.9|
3,0,3.2|
3,1,4.2|
3,2,1|
3,3,9.2|
3,4,8.2|
3,5,0.16|
3,6,9.7|
3,7,7.1|
4,0,10|
4,1,7.3|
4,2,4.1|
4,3,8.8|
4,4,9.7|
4,5,6.7|
4,6,9.7|
4,7,8.7|
5,0,4.1|
5,1,7.6|
5,2,0.36|
5,3,3.8|
5,4,3.6|
5,5,0.24|
5,6,7.5|
5,7,2|
6,0,4.8|
6,1,3.5|
6,2,7.6|
6,3,1.9|
6,4,9.3|
6,5,1.7|
6,6,5.6|
6,7,5.9|
7,0,6.7|
7,1,3.7|
7,2,2.7|
7,3,8.7|
7,4,9.8|
7,5,3.4|
7,6,0.55|
7,7,3.2|
];
constraint_x17_x13=[
0,0,8.6|
0,1,0.95|
0,2,0.78|
0,3,9|
0,4,0.011|
0,5,7.4|
0,6,1.1|
0,7,7.2|
1,0,2.6|
1,1,5.9|
1,2,2.7|
1,3,4.3|
1,4,9.3|
1,5,4.9|
1,6,0.25|
1,7,7.9|
2,0,1.5|
2,1,9.2|
2,2,5.3|
2,3,7.3|
2,4,2.1|
2,5,8.3|
2,6,7.1|
2,7,6.4|
3,0,7.3|
3,1,9.8|
3,2,7.4|
3,3,1.9|
3,4,4.9|
3,5,7.7|
3,6,4.9|
3,7,6.1|
4,0,2.8|
4,1,8.1|
4,2,6.9|
4,3,1.7|
4,4,6.8|
4,5,6.8|
4,6,5.8|
4,7,9.7|
5,0,0.53|
5,1,7.7|
5,2,8.8|
5,3,3.3|
5,4,2|
5,5,2.7|
5,6,4.5|
5,7,2.2|
6,0,8.3|
6,1,5.4|
6,2,6.8|
6,3,3.1|
6,4,9.4|
6,5,5.4|
6,6,0.66|
6,7,3.8|
7,0,6.8|
7,1,8.3|
7,2,9.4|
7,3,2.9|
7,4,0.63|
7,5,0.48|
7,6,6.8|
7,7,9.5|
];
constraint_x18_x14=[
0,0,2.2|
0,1,5.5|
0,2,8|
0,3,8.4|
0,4,4.9|
0,5,4|
0,6,0.44|
0,7,1|
1,0,3.6|
1,1,8.7|
1,2,1.1|
1,3,9.5|
1,4,1.5|
1,5,4.7|
1,6,4|
1,7,4.2|
2,0,3.4|
2,1,5.9|
2,2,0.22|
2,3,8.9|
2,4,6.4|
2,5,5.9|
2,6,0.62|
2,7,1.2|
3,0,4.9|
3,1,6.8|
3,2,7.7|
3,3,7.2|
3,4,4.7|
3,5,5.7|
3,6,8.2|
3,7,4.9|
4,0,3.6|
4,1,3|
4,2,7.1|
4,3,4|
4,4,3.7|
4,5,0.64|
4,6,8.2|
4,7,9.2|
5,0,2.1|
5,1,1.5|
5,2,4.3|
5,3,1.5|
5,4,1.4|
5,5,2.3|
5,6,4.3|
5,7,2.8|
6,0,3.9|
6,1,6.1|
6,2,3.8|
6,3,4.5|
6,4,5.6|
6,5,7.2|
6,6,9.9|
6,7,2|
7,0,6.5|
7,1,7.4|
7,2,0.9|
7,3,6.7|
7,4,7.2|
7,5,4.4|
7,6,7.3|
7,7,0.42|
];
constraint_x19_x15=[
0,0,7.2|
0,1,1.2|
0,2,0.53|
0,3,7.1|
0,4,2.4|
0,5,0.63|
0,6,2.5|
0,7,2.7|
1,0,8.5|
1,1,6.1|
1,2,4.5|
1,3,4|
1,4,4.3|
1,5,1.7|
1,6,5.4|
1,7,4.3|
2,0,9.3|
2,1,3.6|
2,2,8.6|
2,3,1.9|
2,4,2.6|
2,5,5.1|
2,6,1.2|
2,7,3.7|
3,0,6.6|
3,1,4.7|
3,2,4.9|
3,3,8.5|
3,4,6.5|
3,5,6.9|
3,6,1.8|
3,7,7|
4,0,9.4|
4,1,3.2|
4,2,7.6|
4,3,0.76|
4,4,10|
4,5,8.5|
4,6,4.7|
4,7,1.1|
5,0,3|
5,1,8|
5,2,0.1|
5,3,3.7|
5,4,9.8|
5,5,1.5|
5,6,3.7|
5,7,3.5|
6,0,1.4|
6,1,2.9|
6,2,2.2|
6,3,6.6|
6,4,9.1|
6,5,5.4|
6,6,9.9|
6,7,1.5|
7,0,1.9|
7,1,6.6|
7,2,9.2|
7,3,4.3|
7,4,7.8|
7,5,6.6|
7,6,2.4|
7,7,9.1|
];
constraint_x20_x16=[
0,0,4.4|
0,1,4|
0,2,7|
0,3,5.4|
0,4,2.5|
0,5,5.7|
0,6,5.1|
0,7,8.5|
1,0,5|
1,1,5.3|
1,2,1.9|
1,3,3.6|
1,4,3.6|
1,5,1.3|
1,6,0.47|
1,7,5.7|
2,0,8.3|
2,1,1.9|
2,2,1.4|
2,3,5.9|
2,4,0.54|
2,5,0.93|
2,6,6.8|
2,7,3|
3,0,2.2|
3,1,3.5|
3,2,7.4|
3,3,3.7|
3,4,3.2|
3,5,9.5|
3,6,3.2|
3,7,4.8|
4,0,7|
4,1,7.6|
4,2,1.7|
4,3,4.9|
4,4,0.068|
4,5,2.9|
4,6,3.7|
4,7,2.8|
5,0,6.9|
5,1,9.2|
5,2,3|
5,3,8.3|
5,4,7.3|
5,5,2|
5,6,8.7|
5,7,4.3|
6,0,8.9|
6,1,7.1|
6,2,7.1|
6,3,2.1|
6,4,3.7|
6,5,2.8|
6,6,0.44|
6,7,4.6|
7,0,9.8|
7,1,8.3|
7,2,4.8|
7,3,7.7|
7,4,4.2|
7,5,9.3|
7,6,0.51|
7,7,3.1|
];
constraint_x1_y1=[
0,0,5.2|
0,1,1.8|
0,2,7.7|
0,3,1.4|
0,4,8.3|
0,5,7.5|
0,6,2.3|
0,7,1.8|
1,0,1.6|
1,1,2.3|
1,2,5.9|
1,3,0.59|
1,4,6.6|
1,5,8.1|
1,6,5.1|
1,7,8|
2,0,3|
2,1,0.68|
2,2,7.6|
2,3,4.4|
2,4,4.6|
2,5,6.7|
2,6,9.7|
2,7,7.4|
3,0,4.3|
3,1,2.1|
3,2,0.95|
3,3,8.7|
3,4,8.6|
3,5,2.5|
3,6,1.2|
3,7,1.7|
4,0,9.5|
4,1,1.4|
4,2,5.9|
4,3,0.98|
4,4,3.6|
4,5,5.6|
4,6,5.8|
4,7,2.9|
5,0,4.1|
5,1,2.4|
5,2,9.1|
5,3,2.8|
5,4,1.9|
5,5,4.9|
5,6,0.0077|
5,7,4.6|
6,0,7.3|
6,1,5.8|
6,2,3.5|
6,3,3.9|
6,4,9|
6,5,8.6|
6,6,9|
6,7,0.15|
7,0,1.6|
7,1,1.3|
7,2,0.81|
7,3,5.7|
7,4,6.7|
7,5,8.2|
7,6,1.4|
7,7,8.9|
];
constraint_x2_y2=[
0,0,8.8|
0,1,9|
0,2,3.9|
0,3,6.8|
0,4,6.1|
0,5,9.1|
0,6,7.9|
0,7,0.59|
1,0,4.2|
1,1,5.8|
1,2,6.4|
1,3,1.3|
1,4,2.9|
1,5,3.2|
1,6,5.5|
1,7,4.7|
2,0,8.6|
2,1,8.7|
2,2,3.5|
2,3,6.5|
2,4,6.3|
2,5,4.8|
2,6,0.38|
2,7,8.7|
3,0,2.4|
3,1,7.6|
3,2,0.64|
3,3,5.4|
3,4,8.7|
3,5,5.9|
3,6,9.1|
3,7,3.2|
4,0,3.1|
4,1,5.9|
4,2,9.7|
4,3,4.3|
4,4,6.9|
4,5,6.2|
4,6,6.8|
4,7,8.4|
5,0,1.3|
5,1,6.8|
5,2,1.5|
5,3,6|
5,4,7.8|
5,5,9.2|
5,6,9.2|
5,7,8.3|
6,0,1|
6,1,7.8|
6,2,8|
6,3,8.3|
6,4,3.9|
6,5,6.6|
6,6,1.7|
6,7,9.4|
7,0,3.8|
7,1,4.8|
7,2,7.8|
7,3,9.1|
7,4,6|
7,5,2.4|
7,6,9.5|
7,7,3.6|
];
constraint_x3_y3=[
0,0,8.9|
0,1,5.7|
0,2,2.3|
0,3,7.8|
0,4,0.4|
0,5,0.2|
0,6,4.2|
0,7,1.9|
1,0,0.61|
1,1,8.1|
1,2,3.9|
1,3,2.8|
1,4,6.5|
1,5,2.8|
1,6,8.6|
1,7,9.2|
2,0,8.9|
2,1,5.3|
2,2,8.1|
2,3,5|
2,4,3|
2,5,4.8|
2,6,5.8|
2,7,0.28|
3,0,8.8|
3,1,9.3|
3,2,4.7|
3,3,5.5|
3,4,4|
3,5,4.4|
3,6,3.2|
3,7,4.1|
4,0,8.9|
4,1,2.5|
4,2,1.8|
4,3,3.5|
4,4,6.4|
4,5,4.4|
4,6,5.9|
4,7,9.9|
5,0,4.7|
5,1,2.5|
5,2,9.6|
5,3,2.8|
5,4,6.2|
5,5,7.5|
5,6,7.4|
5,7,7.4|
6,0,2.2|
6,1,2.1|
6,2,9.8|
6,3,7.8|
6,4,4.3|
6,5,3.7|
6,6,9.2|
6,7,5.6|
7,0,8|
7,1,6.1|
7,2,4.9|
7,3,10|
7,4,5.1|
7,5,5.7|
7,6,9.7|
7,7,7.2|
];
constraint_x4_y4=[
0,0,6.2|
0,1,4.9|
0,2,8.1|
0,3,5.4|
0,4,6.7|
0,5,0.31|
0,6,0.52|
0,7,0.63|
1,0,3.5|
1,1,6.2|
1,2,4.7|
1,3,8.1|
1,4,5.3|
1,5,2.5|
1,6,3.7|
1,7,2.4|
2,0,4.2|
2,1,1.6|
2,2,5.3|
2,3,1.9|
2,4,3.3|
2,5,9.3|
2,6,2.2|
2,7,8|
3,0,9.3|
3,1,5.2|
3,2,6.3|
3,3,4.1|
3,4,1|
3,5,3.5|
3,6,2.6|
3,7,1.5|
4,0,5.6|
4,1,3.4|
4,2,6.3|
4,3,5.8|
4,4,4.9|
4,5,5.9|
4,6,4|
4,7,5.6|
5,0,5.9|
5,1,6.8|
5,2,6.4|
5,3,6.9|
5,4,0.46|
5,5,2.1|
5,6,0.14|
5,7,7.5|
6,0,3.4|
6,1,8.9|
6,2,3.6|
6,3,9.9|
6,4,7.2|
6,5,4.7|
6,6,2.9|
6,7,1.6|
7,0,0.37|
7,1,7.3|
7,2,9.3|
7,3,5.4|
7,4,8.9|
7,5,9.5|
7,6,4|
7,7,1.6|
];
constraint_x5_y5=[
0,0,1.8|
0,1,5.5|
0,2,9.2|
0,3,0.49|
0,4,5|
0,5,2.5|
0,6,6.2|
0,7,9.4|
1,0,2.7|
1,1,2.9|
1,2,8.6|
1,3,7.9|
1,4,8.9|
1,5,1.2|
1,6,5.3|
1,7,7|
2,0,4.6|
2,1,5.8|
2,2,7.4|
2,3,9.1|
2,4,1.4|
2,5,3.9|
2,6,1.5|
2,7,8.1|
3,0,9.5|
3,1,2.2|
3,2,8.6|
3,3,3.2|
3,4,5|
3,5,7.4|
3,6,7.6|
3,7,3.3|
4,0,8.4|
4,1,0.61|
4,2,3.8|
4,3,9.2|
4,4,1.1|
4,5,6.1|
4,6,5.2|
4,7,6.2|
5,0,0.67|
5,1,7|
5,2,8.5|
5,3,2|
5,4,9.9|
5,5,0.079|
5,6,2.3|
5,7,2.2|
6,0,5|
6,1,5.3|
6,2,2|
6,3,4|
6,4,6.4|
6,5,7|
6,6,7.2|
6,7,0.14|
7,0,7.3|
7,1,9.9|
7,2,9.3|
7,3,0.2|
7,4,7.9|
7,5,0.22|
7,6,2.5|
7,7,3.6|
];
constraint_x6_y6=[
0,0,9.3|
0,1,6.2|
0,2,4.8|
0,3,7.4|
0,4,8.5|
0,5,3.1|
0,6,0.31|
0,7,4.4|
1,0,6.1|
1,1,7.3|
1,2,8.3|
1,3,3.2|
1,4,1.8|
1,5,8.2|
1,6,5.9|
1,7,2|
2,0,7.3|
2,1,1.6|
2,2,1.3|
2,3,3.7|
2,4,2.1|
2,5,7.8|
2,6,8.8|
2,7,0.36|
3,0,1.6|
3,1,9.9|
3,2,8.9|
3,3,0.62|
3,4,7.5|
3,5,5.3|
3,6,2.6|
3,7,1.8|
4,0,7.2|
4,1,8.2|
4,2,9.2|
4,3,2.5|
4,4,3.2|
4,5,7.6|
4,6,0.2|
4,7,1.7|
5,0,4.5|
5,1,2.5|
5,2,7.4|
5,3,4.8|
5,4,7.7|
5,5,8.3|
5,6,7.4|
5,7,8.6|
6,0,0.18|
6,1,2.8|
6,2,4.1|
6,3,6.1|
6,4,3.1|
6,5,3.3|
6,6,3.7|
6,7,6.6|
7,0,2.8|
7,1,7.4|
7,2,6.5|
7,3,5.2|
7,4,9.4|
7,5,7.8|
7,6,5.2|
7,7,2.5|
];
constraint_x7_y7=[
0,0,8.8|
0,1,3.5|
0,2,4.5|
0,3,0.44|
0,4,1.2|
0,5,4.3|
0,6,8|
0,7,4.4|
1,0,5.2|
1,1,5.8|
1,2,4.7|
1,3,2.4|
1,4,4.4|
1,5,5.7|
1,6,8.4|
1,7,9.5|
2,0,8.9|
2,1,9.6|
2,2,9.9|
2,3,1.6|
2,4,2.2|
2,5,1.2|
2,6,0.22|
2,7,9.8|
3,0,0.63|
3,1,6.1|
3,2,4.9|
3,3,4|
3,4,5.9|
3,5,6.6|
3,6,8.9|
3,7,6.2|
4,0,9.5|
4,1,1.2|
4,2,3.3|
4,3,8.9|
4,4,4|
4,5,0.85|
4,6,3.6|
4,7,9.6|
5,0,4.5|
5,1,8.6|
5,2,8.3|
5,3,9|
5,4,4.7|
5,5,0.66|
5,6,5.2|
5,7,9|
6,0,2.3|
6,1,3.7|
6,2,3.2|
6,3,0.74|
6,4,6.6|
6,5,8.6|
6,6,8.2|
6,7,4.5|
7,0,7.5|
7,1,7.6|
7,2,8.5|
7,3,7.6|
7,4,4.7|
7,5,1.3|
7,6,2.8|
7,7,4.8|
];
constraint_x8_y8=[
0,0,6.9|
0,1,6.4|
0,2,0.14|
0,3,4.8|
0,4,6.4|
0,5,7.9|
0,6,6.6|
0,7,1.2|
1,0,6.5|
1,1,3.7|
1,2,4.3|
1,3,7.7|
1,4,7.4|
1,5,6.1|
1,6,0.028|
1,7,1.4|
2,0,9.3|
2,1,6.7|
2,2,0.83|
2,3,1.9|
2,4,5.7|
2,5,2.2|
2,6,9.4|
2,7,0.7|
3,0,5.8|
3,1,6.4|
3,2,6.4|
3,3,5|
3,4,9|
3,5,6.1|
3,6,2.9|
3,7,5.6|
4,0,5.5|
4,1,6.5|
4,2,8.2|
4,3,1.7|
4,4,4.3|
4,5,8.7|
4,6,7.2|
4,7,8.9|
5,0,2.6|
5,1,6.7|
5,2,10|
5,3,7.4|
5,4,2|
5,5,6.4|
5,6,5.8|
5,7,7.5|
6,0,8.7|
6,1,0.43|
6,2,3.7|
6,3,3.1|
6,4,7.6|
6,5,6.7|
6,6,3.2|
6,7,9.7|
7,0,9.8|
7,1,7.9|
7,2,0.32|
7,3,5.9|
7,4,8.1|
7,5,2|
7,6,3.3|
7,7,3.4|
];
constraint_x9_y9=[
0,0,9.8|
0,1,7.6|
0,2,0.35|
0,3,5.5|
0,4,8|
0,5,2.2|
0,6,3|
0,7,7.9|
1,0,8.2|
1,1,8.2|
1,2,2.3|
1,3,3.8|
1,4,0.87|
1,5,2.4|
1,6,7.2|
1,7,3.7|
2,0,0.036|
2,1,0.34|
2,2,7.4|
2,3,9.3|
2,4,2.4|
2,5,6.6|
2,6,3.5|
2,7,0.84|
3,0,6.3|
3,1,2.8|
3,2,8.6|
3,3,1.4|
3,4,3.1|
3,5,0.72|
3,6,1.5|
3,7,4.9|
4,0,6.3|
4,1,0.9|
4,2,0.44|
4,3,0.98|
4,4,4.6|
4,5,6.1|
4,6,7|
4,7,4.5|
5,0,3.1|
5,1,3.6|
5,2,6.8|
5,3,2.3|
5,4,0.29|
5,5,8.1|
5,6,2.4|
5,7,7.4|
6,0,3.8|
6,1,0.84|
6,2,1.5|
6,3,6|
6,4,1.4|
6,5,0.72|
6,6,8.2|
6,7,6.5|
7,0,0.73|
7,1,7.6|
7,2,2|
7,3,0.82|
7,4,2|
7,5,3.4|
7,6,3.2|
7,7,2|
];
initial_distribution_y1=[0.17,0.021,0.21,0.095,0.15,0.029,0.14,0.19];
initial_distribution_y2=[0.15,0.15,0.16,0.026,0.011,0.18,0.15,0.18];
initial_distribution_y3=[0.067,0.12,0.17,0.29,0.068,0.076,0.07,0.14];
initial_distribution_y4=[0.21,0.18,0.15,0.15,0.061,0.14,0.026,0.095];
initial_distribution_y5=[0.04,0.16,0.12,0.11,0.12,0.076,0.28,0.094];
initial_distribution_y6=[0.081,0.18,0.11,0.13,0.18,0.11,0.015,0.19];
initial_distribution_y7=[0.14,0.14,0.082,0.035,0.061,0.087,0.38,0.083];
initial_distribution_y8=[0.16,0.14,0.14,0.12,0.037,0.19,0.15,0.059];
initial_distribution_y9=[0.1,0.14,0.13,0.13,0.068,0.14,0.14,0.15];
transition_y1=[
0.06,0.19,0.09,0.011,0.29,0.1,0.24,0.033|
0.088,0.1,0.21,0.046,0.16,0.095,0.21,0.088|
0.17,0.18,0.18,0.058,0.15,0.06,0.038,0.17|
0.14,0.091,0.14,0.091,0.072,0.22,0.14,0.11|
0.12,0.028,0.11,0.053,0.18,0.066,0.15,0.29|
0.2,0.11,0.076,0.024,0.27,0.14,0.05,0.13|
0.15,0.088,0.061,0.072,0.15,0.22,0.17,0.085|
0.093,0.099,0.049,0.18,0.13,0.25,0.031,0.17|
];
transition_y2=[
0.029,0.02,0.26,0.067,0.21,0.04,0.24,0.14|
0.24,0.2,0.21,0.06,0.042,0.19,0.046,0.02|
0.13,0.02,0.042,0.17,0.22,0.17,0.065,0.19|
0.12,0.072,0.048,0.2,0.14,0.21,0.19,0.02|
0.13,0.19,0.0056,0.21,0.099,0.13,0.15,0.079|
0.2,0.13,0.14,0.19,0.024,0.13,0.099,0.074|
0.089,0.086,0.1,0.057,0.068,0.2,0.17,0.23|
0.17,0.12,0.17,0.04,0.16,0.12,0.078,0.15|
];
transition_y3=[
0.098,0.12,0.087,0.085,0.16,0.21,0.14,0.096|
0.12,0.12,0.084,0.12,0.24,0.19,0.11,0.026|
0.049,0.15,0.16,0.12,0.016,0.15,0.2,0.16|
0.24,0.15,0.044,0.17,0.15,0.07,0.14,0.038|
0.032,0.16,0.016,0.2,0.19,0.08,0.13,0.19|
0.2,0.088,0.025,0.14,0.25,0.15,0.12,0.026|
0.15,0.16,0.21,0.1,0.12,0.15,0.046,0.075|
0.068,0.21,0.15,0.064,0.038,0.14,0.19,0.15|
];
transition_y4=[
0.019,0.077,0.18,0.0046,0.22,0.14,0.043,0.33|
0.21,0.13,0.15,0.17,0.17,0.1,0.01,0.071|
0.07,0.064,0.23,0.15,0.039,0.097,0.096,0.25|
0.15,0.1,0.086,0.19,0.11,0.087,0.25,0.037|
0.13,0.19,0.12,0.098,0.056,0.18,0.15,0.073|
0.31,0.032,0.085,0.11,0.17,0.063,0.18,0.051|
0.19,0.013,0.26,0.029,0.23,0.19,0.032,0.053|
0.2,0.18,0.16,0.093,0.15,0.1,0.022,0.1|
];
transition_y5=[
0.23,0.2,0.14,0.06,0.065,0.057,0.01,0.23|
0.14,0.17,0.2,0.18,0.089,0.11,0.09,0.022|
0.077,0.11,0.049,0.19,0.093,0.17,0.11,0.21|
0.17,0.22,0.047,0.021,0.22,0.13,0.041,0.15|
0.15,0.13,0.17,0.12,0.066,0.11,0.075,0.18|
0.13,0.13,0.18,0.15,0.17,0.18,0.011,0.044|
0.017,0.06,0.22,0.16,0.11,0.21,0.086,0.14|
0.049,0.097,0.13,0.17,0.17,0.1,0.17,0.12|
];
transition_y6=[
0.17,0.13,0.015,0.041,0.17,0.055,0.16,0.25|
0.15,0.21,0.086,0.051,0.091,0.11,0.21,0.093|
0.014,0.071,0.22,0.25,0.18,0.18,0.023,0.06|
0.066,0.24,0.11,0.083,0.1,0.18,0.08,0.15|
0.17,0.11,0.068,0.046,0.19,0.15,0.15,0.11|
0.3,0.011,0.16,0.074,0.15,0.16,0.13,0.0071|
0.15,0.13,0.038,0.15,0.079,0.23,0.16,0.064|
0.15,0.12,0.14,0.13,0.19,0.022,0.13,0.13|
];
transition_y7=[
0.25,0.057,0.28,0.26,0.083,0.04,0.015,0.0085|
0.068,0.011,0.13,0.22,0.14,0.2,0.015,0.22|
0.056,0.11,0.076,0.073,0.14,0.18,0.19,0.17|
0.057,0.11,0.034,0.17,0.22,0.045,0.16,0.19|
0.14,0.14,0.2,0.14,0.17,0.029,0.073,0.11|
0.074,0.1,0.16,0.16,0.009,0.16,0.11,0.23|
0.029,0.11,0.13,0.19,0.11,0.25,0.071,0.12|
0.22,0.15,0.18,0.04,0.061,0.048,0.2,0.11|
];
transition_y8=[
0.2,0.18,0.14,0.17,0.03,0.072,0.062,0.15|
0.16,0.08,0.028,0.12,0.009,0.19,0.23,0.18|
0.11,0.11,0.15,0.15,0.1,0.13,0.15,0.11|
0.099,0.11,0.18,0.15,0.22,0.16,0.019,0.074|
0.038,0.27,0.073,0.15,0.037,0.23,0.032,0.17|
0.22,0.11,0.055,0.21,0.12,0.25,0.0094,0.021|
0.2,0.014,0.029,0.11,0.18,0.28,0.19,0.0035|
0.067,0.16,0.17,0.21,0.0056,0.18,0.093,0.11|
];
transition_y9=[
0.088,0.11,0.18,0.13,0.088,0.11,0.13,0.17|
0.064,0.11,0.13,0.095,0.14,0.13,0.17,0.16|
0.047,0.073,0.16,0.19,0.15,0.13,0.19,0.07|
0.23,0.051,0.092,0.11,0.0085,0.045,0.19,0.27|
0.13,0.15,0.19,0.16,0.019,0.19,0.072,0.097|
0.24,0.18,0.13,0.044,0.0041,0.038,0.16,0.21|
0.2,0.068,0.15,0.24,0.016,0.016,0.27,0.045|
0.24,0.096,0.047,0.078,0.076,0.21,0.081,0.18|
];
